<?xml version = "1.0" encoding="UTF-8" standalone="yes"?>
<CPLEXSolution version="1.2">
 <header
   problemName="/blues/gpfs/home/choy/Siplib/experiment/FULL_INSTANCE/SSLP/EV/SSLP_10_50_100_EV.mps"
   solutionName="incumbent"
   solutionIndex="-1"
   objectiveValue="-167.29000000000002"
   solutionTypeValue="3"
   solutionTypeString="primal"
   solutionStatusValue="101"
   solutionStatusString="integer optimal solution"
   solutionMethodString="mip"
   primalFeasible="1"
   dualFeasible="1"
   MIPNodes="0"
   MIPIterations="115"
   writeLevel="1"/>
 <quality
   epInt="1.0000000000000001e-05"
   epRHS="9.9999999999999995e-07"
   maxIntInfeas="0"
   maxPrimalInfeas="0"
   maxX="1"
   maxSlack="93368.449999999997"/>
 <linearConstraints>
  <constraint name="CON1" index="0" slack="9"/>
  <constraint name="CON2" index="1" slack="-0"/>
  <constraint name="CON3" index="2" slack="93368.449999999997"/>
  <constraint name="CON4" index="3" slack="-0"/>
  <constraint name="CON5" index="4" slack="-0"/>
  <constraint name="CON6" index="5" slack="-0"/>
  <constraint name="CON7" index="6" slack="-0"/>
  <constraint name="CON8" index="7" slack="-0"/>
  <constraint name="CON9" index="8" slack="-0"/>
  <constraint name="CON10" index="9" slack="-0"/>
  <constraint name="CON11" index="10" slack="-0"/>
  <constraint name="CON12" index="11" slack="0"/>
  <constraint name="CON13" index="12" slack="0"/>
  <constraint name="CON14" index="13" slack="0"/>
  <constraint name="CON15" index="14" slack="0"/>
  <constraint name="CON16" index="15" slack="0"/>
  <constraint name="CON17" index="16" slack="0"/>
  <constraint name="CON18" index="17" slack="0"/>
  <constraint name="CON19" index="18" slack="0"/>
  <constraint name="CON20" index="19" slack="0"/>
  <constraint name="CON21" index="20" slack="0"/>
  <constraint name="CON22" index="21" slack="0"/>
  <constraint name="CON23" index="22" slack="0"/>
  <constraint name="CON24" index="23" slack="0"/>
  <constraint name="CON25" index="24" slack="0"/>
  <constraint name="CON26" index="25" slack="0"/>
  <constraint name="CON27" index="26" slack="0"/>
  <constraint name="CON28" index="27" slack="0"/>
  <constraint name="CON29" index="28" slack="0"/>
  <constraint name="CON30" index="29" slack="0"/>
  <constraint name="CON31" index="30" slack="0"/>
  <constraint name="CON32" index="31" slack="0"/>
  <constraint name="CON33" index="32" slack="0"/>
  <constraint name="CON34" index="33" slack="0"/>
  <constraint name="CON35" index="34" slack="0"/>
  <constraint name="CON36" index="35" slack="0"/>
  <constraint name="CON37" index="36" slack="0"/>
  <constraint name="CON38" index="37" slack="0"/>
  <constraint name="CON39" index="38" slack="0"/>
  <constraint name="CON40" index="39" slack="0"/>
  <constraint name="CON41" index="40" slack="0"/>
  <constraint name="CON42" index="41" slack="0"/>
  <constraint name="CON43" index="42" slack="0"/>
  <constraint name="CON44" index="43" slack="0"/>
  <constraint name="CON45" index="44" slack="0"/>
  <constraint name="CON46" index="45" slack="0"/>
  <constraint name="CON47" index="46" slack="0"/>
  <constraint name="CON48" index="47" slack="0"/>
  <constraint name="CON49" index="48" slack="0"/>
  <constraint name="CON50" index="49" slack="0"/>
  <constraint name="CON51" index="50" slack="0"/>
  <constraint name="CON52" index="51" slack="0"/>
  <constraint name="CON53" index="52" slack="0"/>
  <constraint name="CON54" index="53" slack="0"/>
  <constraint name="CON55" index="54" slack="0"/>
  <constraint name="CON56" index="55" slack="0"/>
  <constraint name="CON57" index="56" slack="0"/>
  <constraint name="CON58" index="57" slack="0"/>
  <constraint name="CON59" index="58" slack="0"/>
  <constraint name="CON60" index="59" slack="0"/>
  <constraint name="CON61" index="60" slack="0"/>
 </linearConstraints>
 <variables>
  <variable name="x[1]" index="0" value="0"/>
  <variable name="x[2]" index="1" value="1"/>
  <variable name="x[3]" index="2" value="0"/>
  <variable name="x[4]" index="3" value="0"/>
  <variable name="x[5]" index="4" value="0"/>
  <variable name="x[6]" index="5" value="0"/>
  <variable name="x[7]" index="6" value="0"/>
  <variable name="x[8]" index="7" value="0"/>
  <variable name="x[9]" index="8" value="0"/>
  <variable name="x[10]" index="9" value="0"/>
  <variable name="y[1,1]" index="10" value="0"/>
  <variable name="y[1,2]" index="11" value="1"/>
  <variable name="y[1,3]" index="12" value="0"/>
  <variable name="y[1,4]" index="13" value="0"/>
  <variable name="y[1,5]" index="14" value="0"/>
  <variable name="y[1,6]" index="15" value="0"/>
  <variable name="y[1,7]" index="16" value="0"/>
  <variable name="y[1,8]" index="17" value="0"/>
  <variable name="y[1,9]" index="18" value="0"/>
  <variable name="y[1,10]" index="19" value="0"/>
  <variable name="y[2,1]" index="20" value="0"/>
  <variable name="y[2,2]" index="21" value="0"/>
  <variable name="y[2,3]" index="22" value="0"/>
  <variable name="y[2,4]" index="23" value="0"/>
  <variable name="y[2,5]" index="24" value="0"/>
  <variable name="y[2,6]" index="25" value="0"/>
  <variable name="y[2,7]" index="26" value="0"/>
  <variable name="y[2,8]" index="27" value="0"/>
  <variable name="y[2,9]" index="28" value="0"/>
  <variable name="y[2,10]" index="29" value="0"/>
  <variable name="y[3,1]" index="30" value="0"/>
  <variable name="y[3,2]" index="31" value="0"/>
  <variable name="y[3,3]" index="32" value="0"/>
  <variable name="y[3,4]" index="33" value="0"/>
  <variable name="y[3,5]" index="34" value="0"/>
  <variable name="y[3,6]" index="35" value="0"/>
  <variable name="y[3,7]" index="36" value="0"/>
  <variable name="y[3,8]" index="37" value="0"/>
  <variable name="y[3,9]" index="38" value="0"/>
  <variable name="y[3,10]" index="39" value="0"/>
  <variable name="y[4,1]" index="40" value="0"/>
  <variable name="y[4,2]" index="41" value="0"/>
  <variable name="y[4,3]" index="42" value="0"/>
  <variable name="y[4,4]" index="43" value="0"/>
  <variable name="y[4,5]" index="44" value="0"/>
  <variable name="y[4,6]" index="45" value="0"/>
  <variable name="y[4,7]" index="46" value="0"/>
  <variable name="y[4,8]" index="47" value="0"/>
  <variable name="y[4,9]" index="48" value="0"/>
  <variable name="y[4,10]" index="49" value="0"/>
  <variable name="y[5,1]" index="50" value="0"/>
  <variable name="y[5,2]" index="51" value="0"/>
  <variable name="y[5,3]" index="52" value="0"/>
  <variable name="y[5,4]" index="53" value="0"/>
  <variable name="y[5,5]" index="54" value="0"/>
  <variable name="y[5,6]" index="55" value="0"/>
  <variable name="y[5,7]" index="56" value="0"/>
  <variable name="y[5,8]" index="57" value="0"/>
  <variable name="y[5,9]" index="58" value="0"/>
  <variable name="y[5,10]" index="59" value="0"/>
  <variable name="y[6,1]" index="60" value="0"/>
  <variable name="y[6,2]" index="61" value="0"/>
  <variable name="y[6,3]" index="62" value="0"/>
  <variable name="y[6,4]" index="63" value="0"/>
  <variable name="y[6,5]" index="64" value="0"/>
  <variable name="y[6,6]" index="65" value="0"/>
  <variable name="y[6,7]" index="66" value="0"/>
  <variable name="y[6,8]" index="67" value="0"/>
  <variable name="y[6,9]" index="68" value="0"/>
  <variable name="y[6,10]" index="69" value="0"/>
  <variable name="y[7,1]" index="70" value="0"/>
  <variable name="y[7,2]" index="71" value="0"/>
  <variable name="y[7,3]" index="72" value="0"/>
  <variable name="y[7,4]" index="73" value="0"/>
  <variable name="y[7,5]" index="74" value="0"/>
  <variable name="y[7,6]" index="75" value="0"/>
  <variable name="y[7,7]" index="76" value="0"/>
  <variable name="y[7,8]" index="77" value="0"/>
  <variable name="y[7,9]" index="78" value="0"/>
  <variable name="y[7,10]" index="79" value="0"/>
  <variable name="y[8,1]" index="80" value="0"/>
  <variable name="y[8,2]" index="81" value="1"/>
  <variable name="y[8,3]" index="82" value="0"/>
  <variable name="y[8,4]" index="83" value="0"/>
  <variable name="y[8,5]" index="84" value="0"/>
  <variable name="y[8,6]" index="85" value="0"/>
  <variable name="y[8,7]" index="86" value="0"/>
  <variable name="y[8,8]" index="87" value="0"/>
  <variable name="y[8,9]" index="88" value="0"/>
  <variable name="y[8,10]" index="89" value="0"/>
  <variable name="y[9,1]" index="90" value="0"/>
  <variable name="y[9,2]" index="91" value="0"/>
  <variable name="y[9,3]" index="92" value="0"/>
  <variable name="y[9,4]" index="93" value="0"/>
  <variable name="y[9,5]" index="94" value="0"/>
  <variable name="y[9,6]" index="95" value="0"/>
  <variable name="y[9,7]" index="96" value="0"/>
  <variable name="y[9,8]" index="97" value="0"/>
  <variable name="y[9,9]" index="98" value="0"/>
  <variable name="y[9,10]" index="99" value="0"/>
  <variable name="y[10,1]" index="100" value="0"/>
  <variable name="y[10,2]" index="101" value="0"/>
  <variable name="y[10,3]" index="102" value="0"/>
  <variable name="y[10,4]" index="103" value="0"/>
  <variable name="y[10,5]" index="104" value="0"/>
  <variable name="y[10,6]" index="105" value="0"/>
  <variable name="y[10,7]" index="106" value="0"/>
  <variable name="y[10,8]" index="107" value="0"/>
  <variable name="y[10,9]" index="108" value="0"/>
  <variable name="y[10,10]" index="109" value="0"/>
  <variable name="y[11,1]" index="110" value="0"/>
  <variable name="y[11,2]" index="111" value="0"/>
  <variable name="y[11,3]" index="112" value="0"/>
  <variable name="y[11,4]" index="113" value="0"/>
  <variable name="y[11,5]" index="114" value="0"/>
  <variable name="y[11,6]" index="115" value="0"/>
  <variable name="y[11,7]" index="116" value="0"/>
  <variable name="y[11,8]" index="117" value="0"/>
  <variable name="y[11,9]" index="118" value="0"/>
  <variable name="y[11,10]" index="119" value="0"/>
  <variable name="y[12,1]" index="120" value="0"/>
  <variable name="y[12,2]" index="121" value="0"/>
  <variable name="y[12,3]" index="122" value="0"/>
  <variable name="y[12,4]" index="123" value="0"/>
  <variable name="y[12,5]" index="124" value="0"/>
  <variable name="y[12,6]" index="125" value="0"/>
  <variable name="y[12,7]" index="126" value="0"/>
  <variable name="y[12,8]" index="127" value="0"/>
  <variable name="y[12,9]" index="128" value="0"/>
  <variable name="y[12,10]" index="129" value="0"/>
  <variable name="y[13,1]" index="130" value="0"/>
  <variable name="y[13,2]" index="131" value="0"/>
  <variable name="y[13,3]" index="132" value="0"/>
  <variable name="y[13,4]" index="133" value="0"/>
  <variable name="y[13,5]" index="134" value="0"/>
  <variable name="y[13,6]" index="135" value="0"/>
  <variable name="y[13,7]" index="136" value="0"/>
  <variable name="y[13,8]" index="137" value="0"/>
  <variable name="y[13,9]" index="138" value="0"/>
  <variable name="y[13,10]" index="139" value="0"/>
  <variable name="y[14,1]" index="140" value="0"/>
  <variable name="y[14,2]" index="141" value="0"/>
  <variable name="y[14,3]" index="142" value="0"/>
  <variable name="y[14,4]" index="143" value="0"/>
  <variable name="y[14,5]" index="144" value="0"/>
  <variable name="y[14,6]" index="145" value="0"/>
  <variable name="y[14,7]" index="146" value="0"/>
  <variable name="y[14,8]" index="147" value="0"/>
  <variable name="y[14,9]" index="148" value="0"/>
  <variable name="y[14,10]" index="149" value="0"/>
  <variable name="y[15,1]" index="150" value="0"/>
  <variable name="y[15,2]" index="151" value="1"/>
  <variable name="y[15,3]" index="152" value="0"/>
  <variable name="y[15,4]" index="153" value="0"/>
  <variable name="y[15,5]" index="154" value="0"/>
  <variable name="y[15,6]" index="155" value="0"/>
  <variable name="y[15,7]" index="156" value="0"/>
  <variable name="y[15,8]" index="157" value="0"/>
  <variable name="y[15,9]" index="158" value="0"/>
  <variable name="y[15,10]" index="159" value="0"/>
  <variable name="y[16,1]" index="160" value="0"/>
  <variable name="y[16,2]" index="161" value="0"/>
  <variable name="y[16,3]" index="162" value="0"/>
  <variable name="y[16,4]" index="163" value="0"/>
  <variable name="y[16,5]" index="164" value="0"/>
  <variable name="y[16,6]" index="165" value="0"/>
  <variable name="y[16,7]" index="166" value="0"/>
  <variable name="y[16,8]" index="167" value="0"/>
  <variable name="y[16,9]" index="168" value="0"/>
  <variable name="y[16,10]" index="169" value="0"/>
  <variable name="y[17,1]" index="170" value="0"/>
  <variable name="y[17,2]" index="171" value="0"/>
  <variable name="y[17,3]" index="172" value="0"/>
  <variable name="y[17,4]" index="173" value="0"/>
  <variable name="y[17,5]" index="174" value="0"/>
  <variable name="y[17,6]" index="175" value="0"/>
  <variable name="y[17,7]" index="176" value="0"/>
  <variable name="y[17,8]" index="177" value="0"/>
  <variable name="y[17,9]" index="178" value="0"/>
  <variable name="y[17,10]" index="179" value="0"/>
  <variable name="y[18,1]" index="180" value="0"/>
  <variable name="y[18,2]" index="181" value="0"/>
  <variable name="y[18,3]" index="182" value="0"/>
  <variable name="y[18,4]" index="183" value="0"/>
  <variable name="y[18,5]" index="184" value="0"/>
  <variable name="y[18,6]" index="185" value="0"/>
  <variable name="y[18,7]" index="186" value="0"/>
  <variable name="y[18,8]" index="187" value="0"/>
  <variable name="y[18,9]" index="188" value="0"/>
  <variable name="y[18,10]" index="189" value="0"/>
  <variable name="y[19,1]" index="190" value="0"/>
  <variable name="y[19,2]" index="191" value="0"/>
  <variable name="y[19,3]" index="192" value="0"/>
  <variable name="y[19,4]" index="193" value="0"/>
  <variable name="y[19,5]" index="194" value="0"/>
  <variable name="y[19,6]" index="195" value="0"/>
  <variable name="y[19,7]" index="196" value="0"/>
  <variable name="y[19,8]" index="197" value="0"/>
  <variable name="y[19,9]" index="198" value="0"/>
  <variable name="y[19,10]" index="199" value="0"/>
  <variable name="y[20,1]" index="200" value="0"/>
  <variable name="y[20,2]" index="201" value="0"/>
  <variable name="y[20,3]" index="202" value="0"/>
  <variable name="y[20,4]" index="203" value="0"/>
  <variable name="y[20,5]" index="204" value="0"/>
  <variable name="y[20,6]" index="205" value="0"/>
  <variable name="y[20,7]" index="206" value="0"/>
  <variable name="y[20,8]" index="207" value="0"/>
  <variable name="y[20,9]" index="208" value="0"/>
  <variable name="y[20,10]" index="209" value="0"/>
  <variable name="y[21,1]" index="210" value="0"/>
  <variable name="y[21,2]" index="211" value="0"/>
  <variable name="y[21,3]" index="212" value="0"/>
  <variable name="y[21,4]" index="213" value="0"/>
  <variable name="y[21,5]" index="214" value="0"/>
  <variable name="y[21,6]" index="215" value="0"/>
  <variable name="y[21,7]" index="216" value="0"/>
  <variable name="y[21,8]" index="217" value="0"/>
  <variable name="y[21,9]" index="218" value="0"/>
  <variable name="y[21,10]" index="219" value="0"/>
  <variable name="y[22,1]" index="220" value="0"/>
  <variable name="y[22,2]" index="221" value="0"/>
  <variable name="y[22,3]" index="222" value="0"/>
  <variable name="y[22,4]" index="223" value="0"/>
  <variable name="y[22,5]" index="224" value="0"/>
  <variable name="y[22,6]" index="225" value="0"/>
  <variable name="y[22,7]" index="226" value="0"/>
  <variable name="y[22,8]" index="227" value="0"/>
  <variable name="y[22,9]" index="228" value="0"/>
  <variable name="y[22,10]" index="229" value="0"/>
  <variable name="y[23,1]" index="230" value="0"/>
  <variable name="y[23,2]" index="231" value="1"/>
  <variable name="y[23,3]" index="232" value="0"/>
  <variable name="y[23,4]" index="233" value="0"/>
  <variable name="y[23,5]" index="234" value="0"/>
  <variable name="y[23,6]" index="235" value="0"/>
  <variable name="y[23,7]" index="236" value="0"/>
  <variable name="y[23,8]" index="237" value="0"/>
  <variable name="y[23,9]" index="238" value="0"/>
  <variable name="y[23,10]" index="239" value="0"/>
  <variable name="y[24,1]" index="240" value="0"/>
  <variable name="y[24,2]" index="241" value="0"/>
  <variable name="y[24,3]" index="242" value="0"/>
  <variable name="y[24,4]" index="243" value="0"/>
  <variable name="y[24,5]" index="244" value="0"/>
  <variable name="y[24,6]" index="245" value="0"/>
  <variable name="y[24,7]" index="246" value="0"/>
  <variable name="y[24,8]" index="247" value="0"/>
  <variable name="y[24,9]" index="248" value="0"/>
  <variable name="y[24,10]" index="249" value="0"/>
  <variable name="y[25,1]" index="250" value="0"/>
  <variable name="y[25,2]" index="251" value="1"/>
  <variable name="y[25,3]" index="252" value="0"/>
  <variable name="y[25,4]" index="253" value="0"/>
  <variable name="y[25,5]" index="254" value="0"/>
  <variable name="y[25,6]" index="255" value="0"/>
  <variable name="y[25,7]" index="256" value="0"/>
  <variable name="y[25,8]" index="257" value="0"/>
  <variable name="y[25,9]" index="258" value="0"/>
  <variable name="y[25,10]" index="259" value="0"/>
  <variable name="y[26,1]" index="260" value="0"/>
  <variable name="y[26,2]" index="261" value="0"/>
  <variable name="y[26,3]" index="262" value="0"/>
  <variable name="y[26,4]" index="263" value="0"/>
  <variable name="y[26,5]" index="264" value="0"/>
  <variable name="y[26,6]" index="265" value="0"/>
  <variable name="y[26,7]" index="266" value="0"/>
  <variable name="y[26,8]" index="267" value="0"/>
  <variable name="y[26,9]" index="268" value="0"/>
  <variable name="y[26,10]" index="269" value="0"/>
  <variable name="y[27,1]" index="270" value="0"/>
  <variable name="y[27,2]" index="271" value="0"/>
  <variable name="y[27,3]" index="272" value="0"/>
  <variable name="y[27,4]" index="273" value="0"/>
  <variable name="y[27,5]" index="274" value="0"/>
  <variable name="y[27,6]" index="275" value="0"/>
  <variable name="y[27,7]" index="276" value="0"/>
  <variable name="y[27,8]" index="277" value="0"/>
  <variable name="y[27,9]" index="278" value="0"/>
  <variable name="y[27,10]" index="279" value="0"/>
  <variable name="y[28,1]" index="280" value="0"/>
  <variable name="y[28,2]" index="281" value="0"/>
  <variable name="y[28,3]" index="282" value="0"/>
  <variable name="y[28,4]" index="283" value="0"/>
  <variable name="y[28,5]" index="284" value="0"/>
  <variable name="y[28,6]" index="285" value="0"/>
  <variable name="y[28,7]" index="286" value="0"/>
  <variable name="y[28,8]" index="287" value="0"/>
  <variable name="y[28,9]" index="288" value="0"/>
  <variable name="y[28,10]" index="289" value="0"/>
  <variable name="y[29,1]" index="290" value="0"/>
  <variable name="y[29,2]" index="291" value="1"/>
  <variable name="y[29,3]" index="292" value="0"/>
  <variable name="y[29,4]" index="293" value="0"/>
  <variable name="y[29,5]" index="294" value="0"/>
  <variable name="y[29,6]" index="295" value="0"/>
  <variable name="y[29,7]" index="296" value="0"/>
  <variable name="y[29,8]" index="297" value="0"/>
  <variable name="y[29,9]" index="298" value="0"/>
  <variable name="y[29,10]" index="299" value="0"/>
  <variable name="y[30,1]" index="300" value="0"/>
  <variable name="y[30,2]" index="301" value="0"/>
  <variable name="y[30,3]" index="302" value="0"/>
  <variable name="y[30,4]" index="303" value="0"/>
  <variable name="y[30,5]" index="304" value="0"/>
  <variable name="y[30,6]" index="305" value="0"/>
  <variable name="y[30,7]" index="306" value="0"/>
  <variable name="y[30,8]" index="307" value="0"/>
  <variable name="y[30,9]" index="308" value="0"/>
  <variable name="y[30,10]" index="309" value="0"/>
  <variable name="y[31,1]" index="310" value="0"/>
  <variable name="y[31,2]" index="311" value="0"/>
  <variable name="y[31,3]" index="312" value="0"/>
  <variable name="y[31,4]" index="313" value="0"/>
  <variable name="y[31,5]" index="314" value="0"/>
  <variable name="y[31,6]" index="315" value="0"/>
  <variable name="y[31,7]" index="316" value="0"/>
  <variable name="y[31,8]" index="317" value="0"/>
  <variable name="y[31,9]" index="318" value="0"/>
  <variable name="y[31,10]" index="319" value="0"/>
  <variable name="y[32,1]" index="320" value="0"/>
  <variable name="y[32,2]" index="321" value="0"/>
  <variable name="y[32,3]" index="322" value="0"/>
  <variable name="y[32,4]" index="323" value="0"/>
  <variable name="y[32,5]" index="324" value="0"/>
  <variable name="y[32,6]" index="325" value="0"/>
  <variable name="y[32,7]" index="326" value="0"/>
  <variable name="y[32,8]" index="327" value="0"/>
  <variable name="y[32,9]" index="328" value="0"/>
  <variable name="y[32,10]" index="329" value="0"/>
  <variable name="y[33,1]" index="330" value="0"/>
  <variable name="y[33,2]" index="331" value="1"/>
  <variable name="y[33,3]" index="332" value="0"/>
  <variable name="y[33,4]" index="333" value="0"/>
  <variable name="y[33,5]" index="334" value="0"/>
  <variable name="y[33,6]" index="335" value="0"/>
  <variable name="y[33,7]" index="336" value="0"/>
  <variable name="y[33,8]" index="337" value="0"/>
  <variable name="y[33,9]" index="338" value="0"/>
  <variable name="y[33,10]" index="339" value="0"/>
  <variable name="y[34,1]" index="340" value="0"/>
  <variable name="y[34,2]" index="341" value="0"/>
  <variable name="y[34,3]" index="342" value="0"/>
  <variable name="y[34,4]" index="343" value="0"/>
  <variable name="y[34,5]" index="344" value="0"/>
  <variable name="y[34,6]" index="345" value="0"/>
  <variable name="y[34,7]" index="346" value="0"/>
  <variable name="y[34,8]" index="347" value="0"/>
  <variable name="y[34,9]" index="348" value="0"/>
  <variable name="y[34,10]" index="349" value="0"/>
  <variable name="y[35,1]" index="350" value="0"/>
  <variable name="y[35,2]" index="351" value="0"/>
  <variable name="y[35,3]" index="352" value="0"/>
  <variable name="y[35,4]" index="353" value="0"/>
  <variable name="y[35,5]" index="354" value="0"/>
  <variable name="y[35,6]" index="355" value="0"/>
  <variable name="y[35,7]" index="356" value="0"/>
  <variable name="y[35,8]" index="357" value="0"/>
  <variable name="y[35,9]" index="358" value="0"/>
  <variable name="y[35,10]" index="359" value="0"/>
  <variable name="y[36,1]" index="360" value="0"/>
  <variable name="y[36,2]" index="361" value="1"/>
  <variable name="y[36,3]" index="362" value="0"/>
  <variable name="y[36,4]" index="363" value="0"/>
  <variable name="y[36,5]" index="364" value="0"/>
  <variable name="y[36,6]" index="365" value="0"/>
  <variable name="y[36,7]" index="366" value="0"/>
  <variable name="y[36,8]" index="367" value="0"/>
  <variable name="y[36,9]" index="368" value="0"/>
  <variable name="y[36,10]" index="369" value="0"/>
  <variable name="y[37,1]" index="370" value="0"/>
  <variable name="y[37,2]" index="371" value="1"/>
  <variable name="y[37,3]" index="372" value="0"/>
  <variable name="y[37,4]" index="373" value="0"/>
  <variable name="y[37,5]" index="374" value="0"/>
  <variable name="y[37,6]" index="375" value="0"/>
  <variable name="y[37,7]" index="376" value="0"/>
  <variable name="y[37,8]" index="377" value="0"/>
  <variable name="y[37,9]" index="378" value="0"/>
  <variable name="y[37,10]" index="379" value="0"/>
  <variable name="y[38,1]" index="380" value="0"/>
  <variable name="y[38,2]" index="381" value="1"/>
  <variable name="y[38,3]" index="382" value="0"/>
  <variable name="y[38,4]" index="383" value="0"/>
  <variable name="y[38,5]" index="384" value="0"/>
  <variable name="y[38,6]" index="385" value="0"/>
  <variable name="y[38,7]" index="386" value="0"/>
  <variable name="y[38,8]" index="387" value="0"/>
  <variable name="y[38,9]" index="388" value="0"/>
  <variable name="y[38,10]" index="389" value="0"/>
  <variable name="y[39,1]" index="390" value="0"/>
  <variable name="y[39,2]" index="391" value="0"/>
  <variable name="y[39,3]" index="392" value="0"/>
  <variable name="y[39,4]" index="393" value="0"/>
  <variable name="y[39,5]" index="394" value="0"/>
  <variable name="y[39,6]" index="395" value="0"/>
  <variable name="y[39,7]" index="396" value="0"/>
  <variable name="y[39,8]" index="397" value="0"/>
  <variable name="y[39,9]" index="398" value="0"/>
  <variable name="y[39,10]" index="399" value="0"/>
  <variable name="y[40,1]" index="400" value="0"/>
  <variable name="y[40,2]" index="401" value="1"/>
  <variable name="y[40,3]" index="402" value="0"/>
  <variable name="y[40,4]" index="403" value="0"/>
  <variable name="y[40,5]" index="404" value="0"/>
  <variable name="y[40,6]" index="405" value="0"/>
  <variable name="y[40,7]" index="406" value="0"/>
  <variable name="y[40,8]" index="407" value="0"/>
  <variable name="y[40,9]" index="408" value="0"/>
  <variable name="y[40,10]" index="409" value="0"/>
  <variable name="y[41,1]" index="410" value="0"/>
  <variable name="y[41,2]" index="411" value="1"/>
  <variable name="y[41,3]" index="412" value="0"/>
  <variable name="y[41,4]" index="413" value="0"/>
  <variable name="y[41,5]" index="414" value="0"/>
  <variable name="y[41,6]" index="415" value="0"/>
  <variable name="y[41,7]" index="416" value="0"/>
  <variable name="y[41,8]" index="417" value="0"/>
  <variable name="y[41,9]" index="418" value="0"/>
  <variable name="y[41,10]" index="419" value="0"/>
  <variable name="y[42,1]" index="420" value="0"/>
  <variable name="y[42,2]" index="421" value="0"/>
  <variable name="y[42,3]" index="422" value="0"/>
  <variable name="y[42,4]" index="423" value="0"/>
  <variable name="y[42,5]" index="424" value="0"/>
  <variable name="y[42,6]" index="425" value="0"/>
  <variable name="y[42,7]" index="426" value="0"/>
  <variable name="y[42,8]" index="427" value="0"/>
  <variable name="y[42,9]" index="428" value="0"/>
  <variable name="y[42,10]" index="429" value="0"/>
  <variable name="y[43,1]" index="430" value="0"/>
  <variable name="y[43,2]" index="431" value="0"/>
  <variable name="y[43,3]" index="432" value="0"/>
  <variable name="y[43,4]" index="433" value="0"/>
  <variable name="y[43,5]" index="434" value="0"/>
  <variable name="y[43,6]" index="435" value="0"/>
  <variable name="y[43,7]" index="436" value="0"/>
  <variable name="y[43,8]" index="437" value="0"/>
  <variable name="y[43,9]" index="438" value="0"/>
  <variable name="y[43,10]" index="439" value="0"/>
  <variable name="y[44,1]" index="440" value="0"/>
  <variable name="y[44,2]" index="441" value="1"/>
  <variable name="y[44,3]" index="442" value="0"/>
  <variable name="y[44,4]" index="443" value="0"/>
  <variable name="y[44,5]" index="444" value="0"/>
  <variable name="y[44,6]" index="445" value="0"/>
  <variable name="y[44,7]" index="446" value="0"/>
  <variable name="y[44,8]" index="447" value="0"/>
  <variable name="y[44,9]" index="448" value="0"/>
  <variable name="y[44,10]" index="449" value="0"/>
  <variable name="y[45,1]" index="450" value="0"/>
  <variable name="y[45,2]" index="451" value="1"/>
  <variable name="y[45,3]" index="452" value="0"/>
  <variable name="y[45,4]" index="453" value="0"/>
  <variable name="y[45,5]" index="454" value="0"/>
  <variable name="y[45,6]" index="455" value="0"/>
  <variable name="y[45,7]" index="456" value="0"/>
  <variable name="y[45,8]" index="457" value="0"/>
  <variable name="y[45,9]" index="458" value="0"/>
  <variable name="y[45,10]" index="459" value="0"/>
  <variable name="y[46,1]" index="460" value="0"/>
  <variable name="y[46,2]" index="461" value="1"/>
  <variable name="y[46,3]" index="462" value="0"/>
  <variable name="y[46,4]" index="463" value="0"/>
  <variable name="y[46,5]" index="464" value="0"/>
  <variable name="y[46,6]" index="465" value="0"/>
  <variable name="y[46,7]" index="466" value="0"/>
  <variable name="y[46,8]" index="467" value="0"/>
  <variable name="y[46,9]" index="468" value="0"/>
  <variable name="y[46,10]" index="469" value="0"/>
  <variable name="y[47,1]" index="470" value="0"/>
  <variable name="y[47,2]" index="471" value="0"/>
  <variable name="y[47,3]" index="472" value="0"/>
  <variable name="y[47,4]" index="473" value="0"/>
  <variable name="y[47,5]" index="474" value="0"/>
  <variable name="y[47,6]" index="475" value="0"/>
  <variable name="y[47,7]" index="476" value="0"/>
  <variable name="y[47,8]" index="477" value="0"/>
  <variable name="y[47,9]" index="478" value="0"/>
  <variable name="y[47,10]" index="479" value="0"/>
  <variable name="y[48,1]" index="480" value="0"/>
  <variable name="y[48,2]" index="481" value="1"/>
  <variable name="y[48,3]" index="482" value="0"/>
  <variable name="y[48,4]" index="483" value="0"/>
  <variable name="y[48,5]" index="484" value="0"/>
  <variable name="y[48,6]" index="485" value="0"/>
  <variable name="y[48,7]" index="486" value="0"/>
  <variable name="y[48,8]" index="487" value="0"/>
  <variable name="y[48,9]" index="488" value="0"/>
  <variable name="y[48,10]" index="489" value="0"/>
  <variable name="y[49,1]" index="490" value="0"/>
  <variable name="y[49,2]" index="491" value="0"/>
  <variable name="y[49,3]" index="492" value="0"/>
  <variable name="y[49,4]" index="493" value="0"/>
  <variable name="y[49,5]" index="494" value="1"/>
  <variable name="y[49,6]" index="495" value="0"/>
  <variable name="y[49,7]" index="496" value="0"/>
  <variable name="y[49,8]" index="497" value="0"/>
  <variable name="y[49,9]" index="498" value="0"/>
  <variable name="y[49,10]" index="499" value="0"/>
  <variable name="y[50,1]" index="500" value="0"/>
  <variable name="y[50,2]" index="501" value="0"/>
  <variable name="y[50,3]" index="502" value="0"/>
  <variable name="y[50,4]" index="503" value="0"/>
  <variable name="y[50,5]" index="504" value="0"/>
  <variable name="y[50,6]" index="505" value="0"/>
  <variable name="y[50,7]" index="506" value="0"/>
  <variable name="y[50,8]" index="507" value="0"/>
  <variable name="y[50,9]" index="508" value="0"/>
  <variable name="y[50,10]" index="509" value="0"/>
  <variable name="y0[1]" index="510" value="-0"/>
  <variable name="y0[2]" index="511" value="-0"/>
  <variable name="y0[3]" index="512" value="-0"/>
  <variable name="y0[4]" index="513" value="-0"/>
  <variable name="y0[5]" index="514" value="-0"/>
  <variable name="y0[6]" index="515" value="-0"/>
  <variable name="y0[7]" index="516" value="-0"/>
  <variable name="y0[8]" index="517" value="-0"/>
  <variable name="y0[9]" index="518" value="-0"/>
  <variable name="y0[10]" index="519" value="-0"/>
 </variables>
</CPLEXSolution>
